language ESSENCE' 1.0
letting lastdx=99
letting cage be [
[28,1,15,1,16,0,0, 0,0, 0,0],
[4,14,11,0,0, 0,0, 0,0, 0,0],
[50,12,9,11,9,11,10,12,10,13,10],
[5,9,2,0,0, 0,0, 0,0, 0,0],
[34,3,5,3,6,3,7,3,8,0,0],
[7,5,9,0,0, 0,0, 0,0, 0,0],
[4,1,5,0,0, 0,0, 0,0, 0,0],
[6,10,10,0,0, 0,0, 0,0, 0,0],
[24,5,15,5,14,0,0, 0,0, 0,0],
[16,1,14,0,0, 0,0, 0,0, 0,0],
[18,5,4,5,3,6,3,0,0, 0,0],
[9,16,13,0,0, 0,0, 0,0, 0,0],
[27,3,10,3,11,2,11,2,10,0,0],
[27,9,7,9,6,8,6,7,6,0,0],
[58,8,8,9,8,9,9,9,10,8,10],
[33,11,16,11,15,12,15,13,15,14,15],
[6,1,9,0,0, 0,0, 0,0, 0,0],
[38,3,13,4,13,4,14,3,14,3,15],
[14,15,8,0,0, 0,0, 0,0, 0,0],
[50,2,2,3,2,4,2,4,3,0,0],
[23,11,7,11,8,0,0, 0,0, 0,0],
[35,13,12,14,12,14,13,14,14,0,0],
[61,14,7,15,7,15,6,14,6,13,6],
[34,6,2,5,2,5,1,4,1,3,1],
[28,3,9,4,9,4,10,4,11,0,0],
[10,2,9,0,0, 0,0, 0,0, 0,0],
[30,7,11,8,11,9,11,9,12,0,0],
[26,12,13,12,14,13,14,13,13,0,0],
[13,12,7,0,0, 0,0, 0,0, 0,0],
[3,15,4,0,0, 0,0, 0,0, 0,0],
[1,5,7,0,0, 0,0, 0,0, 0,0],
[13,8,12,0,0, 0,0, 0,0, 0,0],
[14,16,1,0,0, 0,0, 0,0, 0,0],
[7,12,11,13,11,0,0, 0,0, 0,0],
[10,4,16,4,15,0,0, 0,0, 0,0],
[11,16,9,0,0, 0,0, 0,0, 0,0],
[24,16,7,16,8,16,6,16,5,16,4],
[40,6,4,7,4,7,5,0,0, 0,0],
[27,5,13,5,12,6,12,0,0, 0,0],
[15,8,5,9,5,0,0, 0,0, 0,0],
[4,9,13,0,0, 0,0, 0,0, 0,0],
[44,10,13,11,13,11,12,12,12,0,0],
[19,6,6,6,5,0,0, 0,0, 0,0],
[8,1,13,0,0, 0,0, 0,0, 0,0],
[39,15,12,16,12,16,11,15,11,0,0],
[16,13,1,0,0, 0,0, 0,0, 0,0],
[15,13,3,0,0, 0,0, 0,0, 0,0],
[24,10,8,10,9,0,0, 0,0, 0,0],
[26,6,11,6,10,7,10,0,0, 0,0],
[1,2,15,0,0, 0,0, 0,0, 0,0],
[26,6,16,5,16,7,16,8,16,0,0],
[40,9,4,9,3,10,3,0,0, 0,0],
[7,10,4,11,4,0,0, 0,0, 0,0],
[3,11,11,0,0, 0,0, 0,0, 0,0],
[32,11,6,11,5,10,5,10,6,10,7],
[18,12,1,12,2,0,0, 0,0, 0,0],
[23,5,11,5,10,0,0, 0,0, 0,0],
[26,14,4,14,5,15,5,0,0, 0,0],
[9,13,7,0,0, 0,0, 0,0, 0,0],
[37,9,16,9,15,9,14,8,14,8,13],
[19,11,1,10,1,10,2,0,0, 0,0],
[20,15,2,14,2,13,2,0,0, 0,0],
[4,6,14,0,0, 0,0, 0,0, 0,0],
[41,16,10,15,10,15,9,14,9,14,10],
[37,13,9,13,8,12,8,14,8,0,0],
[5,4,8,0,0, 0,0, 0,0, 0,0],
[49,16,15,15,15,15,14,15,13,16,14],
[9,8,3,8,4,0,0, 0,0, 0,0],
[9,1,2,0,0, 0,0, 0,0, 0,0],
[14,5,5,4,5,0,0, 0,0, 0,0],
[9,12,6,0,0, 0,0, 0,0, 0,0],
[1,1,3,0,0, 0,0, 0,0, 0,0],
[14,12,4,12,5,0,0, 0,0, 0,0],
[19,3,16,2,16,0,0, 0,0, 0,0],
[17,13,5,13,4,0,0, 0,0, 0,0],
[54,2,7,1,7,1,6,2,6,2,5],
[38,3,3,3,4,4,4,0,0, 0,0],
[27,11,3,11,2,12,3,0,0, 0,0],
[22,10,11,10,12,0,0, 0,0, 0,0],
[31,7,8,7,7,6,7,8,7,0,0],
[20,15,1,14,1,0,0, 0,0, 0,0],
[33,11,14,10,14,10,15,10,16,0,0],
[16,2,12,0,0, 0,0, 0,0, 0,0],
[26,5,6,4,6,4,7,0,0, 0,0],
[12,16,3,16,2,0,0, 0,0, 0,0],
[28,7,15,6,15,8,15,0,0, 0,0],
[9,1,1,2,1,0,0, 0,0, 0,0],
[11,1,4,0,0, 0,0, 0,0, 0,0],
[16,1,8,2,8,0,0, 0,0, 0,0],
[2,1,10,0,0, 0,0, 0,0, 0,0],
[21,1,11,1,12,0,0, 0,0, 0,0],
[10,2,3,2,4,0,0, 0,0, 0,0],
[16,2,13,2,14,0,0, 0,0, 0,0],
[26,3,12,4,12,0,0, 0,0, 0,0],
[13,6,1,0,0, 0,0, 0,0, 0,0],
[35,6,13,7,13,7,12,7,14,0,0],
[32,7,1,8,1,9,1,8,2,0,0],
[26,7,2,7,3,0,0, 0,0, 0,0],
[46,12,16,13,16,14,16,15,16,16,16],
[9,14,3,15,3,0,0, 0,0, 0,0]
]
